set NODES := 0 1 2 3 4 5 6 7;

param C :
    0   1   2   3   4   5   6   7 :=
0  1958  426  458  525  883  805  781  274
1  206  1958  786  449  517  732  395  287
2  436  438  1958  588  287  958  281  626
3  288  445  1958  1958  679  1958  1958  511
4  204  751  879  550  1958  1958  613  539
5  792  161  1958  1958  753  1958  735  151
6  415  644  431  738  697  692  1958  185
7  218  706  117  1958  127  1958  522  1958
;

set PROHIBITED := ;

param start_node := 0;
param end_node := 7;
